NAME mkp
OBJSENSE MAX
ROWS
 N  OBJ
 L  R0      
 L  R1      
COLUMNS
    MARKER    'MARKER'                 'INTORG'
    x1        OBJ       16
    x1        R0        2
    x1        R1        3000
    x2        OBJ       19
    x2        R0        3
    x2        R1        3500
    x3        OBJ       23
    x3        R0        4
    x3        R1        5100
    x4        OBJ       28
    x4        R0        5
    x4        R1        7200
    MARKER    'MARKER'                 'INTEND'
RHS
    RHS1      R0        7
    RHS1      R1        10000
BOUNDS
 BV BND1      x1      
 BV BND1      x2      
 BV BND1      x3      
 BV BND1      x4      
ENDATA
